160400.26,54.38,67.44
179905.26,48.48,60.13
181050.27,48.18,59.75
161209.22,54.11,67.1
171217.08,50.94,63.18
156113.49,55.87,69.29
188613.0,46.25,57.35
179665.63,48.55,60.21
164037.75,53.17,65.94
180472.88,48.33,59.94
183418.93,47.56,58.97
171730.8,50.79,62.99
167569.73,52.05,64.55
155703.3,56.02,69.47
170555.16,51.14,63.42
162359.91,53.72,66.62
156630.63,55.69,69.06
191914.42,45.45,56.36
166192.21,52.49,65.09
189478.17,46.04,57.09
